NAME          COPTPROB
OBJSENSE
  MIN
ROWS
 N  __OBJ___
 L  C7      
 L  C12     
 L  C53     
 L  C66     
 L  C106    
 L  C171    
 L  C173    
 L  C176    
COLUMNS
    MARKER    'MARKER'                 'INTORG'
    x136      __OBJ___  254
    x136      C7        -1
    x136      C66       -1
    x309      __OBJ___  182
    x309      C106      -1
    x309      C171      -1
    x345      __OBJ___  127
    x345      C106      -1
    x345      C173      -1
    x356      __OBJ___  51
    x356      C12       -1
    x356      C53       -1
    x386      __OBJ___  192
    x386      C66       -1
    x386      C176      -1
    x522      __OBJ___  97
    x522      C7        -1
    x522      C53       -1
    x592      __OBJ___  105
    x592      C12       -1
    x592      C171      -1
    x634      __OBJ___  51
    x634      C173      -1
    x640      __OBJ___  119
    x640      C173      -1
    x640      C176      -1
    x667      __OBJ___  80
    x667      C7        -1
    x734      __OBJ___  181
    x734      C66       -1
    MARKER    'MARKER'                 'INTEND'
RHS
    RHS       __OBJ___  -17407
    RHS       C7        -1
    RHS       C12       -1
    RHS       C53       -1
    RHS       C66       -1
    RHS       C106      -1
    RHS       C171      -1
    RHS       C173      -1
    RHS       C176      -1
BOUNDS
 UP BOUND     x136      1
 UP BOUND     x309      1
 UP BOUND     x345      1
 UP BOUND     x356      1
 UP BOUND     x386      1
 UP BOUND     x522      1
 UP BOUND     x592      1
 UP BOUND     x634      1
 UP BOUND     x640      1
 UP BOUND     x667      1
 UP BOUND     x734      1
ENDATA
